NAME: pr2392
COMMENT: Tabu Search - tabusSize: 0.3 - neighborSize: 3
DIMENSION: 2392
DISTANCE: 409442.0
EXECUTION_TIME: 601.356
TOUR_SECTION: 
2369 2371 2370 2381 2382 2383 2384 2385 2386 2387 2 2388 2389 2390 2391 2392 1 3 4 5 6 7 8 9 10 11 12 13 14 15 16 17 18 20 21 22 23 24 25 26 27 28 29 30 31 32 33 1296 1295 1294 1293 1292 1291 1290 1289 1288 1286 1287 1353 1352 1351 1350 1347 1346 1345 1348 1349 1354 1355 1356 1285 1284 1283 34 35 36 37 38 39 40 41 42 43 44 45 47 46 1282 1281 1280 1357 1358 1359 1360 1361 1362 1373 1374 1375 1376 1278 1279 1277 1276 1275 1274 1273 1272 1271 1270 1269 49 48 50 51 52 53 54 55 56 57 58 59 60 63 62 61 1268 1267 1266 1265 1264 1263 1262 1261 1260 1259 1258 1257 1256 1255 1254 1253 1252 1251 1250 1248 1249 1228 1229 1245 1247 1246 1244 1243 1242 1386 1385 1384 1383 1382 1369 1381 1380 1379 1378 1377 1370 1368 1367 1364 1371 1372 1363 1365 1366 1343 1344 1342 1341 1339 1340 1319 1318 1316 1315 1317 1320 1321 1322 1323 1338 1337 1409 1336 1335 1334 1333 1332 1331 1330 1507 1506 1505 1504 1500 1501 1502 1503 1511 1510 1508 1509 1512 1513 1514 1515 1516 1517 1518 1520 1519 1521 1522 1523 1524 1525 1526 1527 1528 1529 1530 1531 1532 1533 1535 1534 1539 1536 1537 1538 1542 1541 1540 1479 1480 1481 1478 1477 1476 1475 1474 1473 1472 1471 1469 1470 1462 1461 1460 1459 1458 1457 1456 1455 1452 1453 1450 1451 1449 1448 1447 1446 1445 1444 1443 1442 1441 1440 1439 1438 1463 1464 1465 1466 1467 1468 1482 1483 1484 1485 1486 1487 1490 1488 1489 1491 1492 1493 1494 1495 1496 1498 1499 1497 1437 1436 1435 1434 1433 1432 1431 1430 1429 1428 1427 1426 1425 1424 1423 1422 1421 1420 1419 1418 1417 1416 1415 1414 1413 1412 1411 1410 1408 1407 1406 1405 1404 1403 1402 1401 1400 1399 1398 1397 1396 1395 1394 1393 1392 1391 1390 1389 1388 1387 1241 1240 1239 1238 1237 1236 1235 1234 1233 1232 1231 1230 1227 1226 1225 1224 1223 1222 1221 1220 1219 1218 1217 1216 1215 1214 1207 1206 1205 1203 1200 1199 1198 1197 1196 1195 1194 1191 1192 1193 159 160 158 157 156 1202 1201 1204 155 154 153 152 151 150 149 148 147 146 145 144 143 79 78 1210 1209 1208 1213 1212 1211 64 65 66 67 68 69 70 71 72 73 74 75 76 77 80 81 82 83 84 85 86 87 88 89 90 92 91 142 141 140 139 138 137 136 135 134 132 133 199 198 197 196 193 192 191 194 195 200 201 202 203 204 205 206 207 208 209 210 211 212 213 214 216 217 218 219 220 221 124 125 128 127 126 131 130 129 93 94 95 96 97 98 99 100 101 102 103 104 105 106 107 108 109 110 111 112 113 114 115 116 117 118 119 120 121 122 123 222 223 224 225 215 226 227 228 229 230 231 232 233 234 235 236 237 238 239 240 241 242 243 244 245 246 249 250 248 251 252 253 247 254 256 257 258 259 260 261 262 263 264 265 266 267 268 269 270 271 272 273 274 275 276 277 278 279 280 281 282 283 284 285 286 287 288 289 290 293 292 291 307 308 309 310 311 312 313 315 314 340 341 342 344 345 343 346 347 348 349 350 351 353 352 255 189 190 188 187 185 186 165 164 162 161 163 166 167 168 169 184 183 182 181 180 179 178 177 176 175 174 173 172 171 170 1189 1190 1188 1187 1186 1185 1184 1183 1182 1181 1180 1179 1178 1177 1176 1175 1174 1173 1170 1169 1168 1167 1171 1172 1166 1165 1164 1163 1162 1161 1160 1159 1158 1157 1156 1155 1154 1153 1152 1151 1150 1149 1147 1148 1146 1145 1144 1143 1142 1141 1137 1136 1135 1131 1130 1129 1128 1127 1126 1125 1124 1123 1122 1121 1090 1114 1113 1112 1133 1115 1119 1120 1118 1117 1116 1132 1134 1110 1111 1108 1109 1138 1139 1140 358 355 354 356 357 359 360 361 362 363 364 366 365 367 368 369 335 334 333 336 337 339 338 332 331 330 329 328 316 317 306 305 320 319 318 321 322 323 324 327 326 325 386 387 388 384 383 382 385 380 381 379 378 377 376 375 374 373 372 371 370 1107 1106 1105 1104 1103 1102 1101 1100 1099 1098 1097 1096 1095 1094 1093 1092 1091 1088 1089 1087 1086 1085 1084 1083 1082 1080 1079 1076 1078 1018 1019 1020 1077 1075 1081 1074 1073 1072 1071 1070 1069 1068 1067 1066 1065 1064 1061 1063 1062 1060 1059 1058 1057 1056 1055 1054 1053 1052 1051 1050 1048 1047 1045 1044 1046 1043 1042 1039 1041 1040 1049 1038 1037 1036 1035 1034 1033 1031 1032 1030 1029 1028 1027 1026 1025 1024 1023 1022 1021 1454 1552 1551 1550 1549 1548 1543 1544 1545 1546 1547 1553 1554 1555 1556 1557 1558 1559 1560 1017 1016 1015 1014 1013 1012 1011 880 881 882 883 884 885 886 887 888 824 825 826 823 889 890 891 892 893 1010 1009 1008 1007 1006 1005 1004 1003 1002 1001 1000 999 998 997 996 995 994 894 895 896 897 898 899 900 901 902 903 904 905 906 907 993 992 991 990 989 988 987 986 985 984 983 982 980 981 908 909 910 911 912 913 914 915 916 922 921 957 920 919 918 917 961 962 420 421 964 963 979 978 977 976 975 974 973 967 968 969 970 971 972 389 390 391 392 393 394 396 395 304 303 302 301 298 297 294 295 296 299 300 398 397 399 400 401 402 403 404 405 406 966 965 407 408 409 410 411 412 413 414 415 416 417 419 418 439 438 440 441 442 443 444 445 446 447 448 449 450 451 452 453 454 455 456 457 461 460 459 458 434 435 433 432 431 430 429 428 436 437 427 426 425 424 423 422 960 959 958 956 955 954 953 952 951 950 949 948 947 927 926 923 924 925 928 929 930 931 942 943 946 945 944 474 473 470 469 471 468 467 466 472 465 464 462 463 482 481 480 479 478 475 476 477 938 939 940 941 934 933 932 795 796 797 798 799 800 801 803 804 805 806 807 794 793 792 791 790 788 784 785 786 787 789 935 936 937 752 753 754 755 758 757 756 748 749 743 742 741 735 736 737 713 738 739 740 744 745 746 747 750 751 596 595 597 598 599 600 601 602 603 604 605 606 607 608 609 610 611 612 613 614 615 616 563 564 565 566 567 568 569 570 571 572 573 574 577 575 576 578 579 580 581 582 583 584 586 585 589 590 588 587 591 592 594 593 483 484 485 486 487 488 489 490 491 492 493 494 495 496 497 498 499 500 501 502 503 504 507 508 506 505 528 529 527 530 531 526 525 524 523 522 521 513 511 510 509 512 514 515 516 520 519 518 517 548 547 537 536 532 533 534 535 538 539 540 541 542 543 544 545 546 550 549 551 552 553 554 555 556 557 558 559 562 560 561 618 619 620 617 621 622 623 722 723 726 727 728 729 725 724 721 624 625 720 719 718 627 626 628 629 630 631 632 633 635 636 696 637 634 638 639 640 641 642 643 644 645 646 647 648 649 650 651 652 1787 1788 1789 1786 1785 1784 1779 1778 1777 1776 1775 1766 1764 1763 1759 1758 1760 1761 1762 1765 1822 1767 1768 1769 1774 1773 1772 1771 1770 1801 1800 1799 1790 1791 1792 1798 1797 1793 1794 1795 1796 1803 1802 1804 1805 1806 1807 1808 1809 1811 1812 1815 1813 1814 1816 1810 1817 1818 1819 1820 1821 1823 1824 1825 1826 1827 1830 1828 1829 1831 1832 1833 1834 1835 1836 1837 1839 1838 1842 1843 1841 1840 1844 1845 1847 1846 1736 1737 1738 1739 1740 1741 1742 1743 1744 1745 1746 1747 1748 1749 1750 1751 1752 1753 1754 1755 1756 1757 1781 1782 1780 1783 655 654 653 688 687 686 689 690 691 692 693 694 695 697 698 699 700 701 702 703 704 706 705 716 717 730 731 732 733 734 715 714 712 711 710 709 707 708 682 681 680 683 684 685 656 657 658 659 660 661 662 663 665 664 667 668 666 673 674 675 677 678 679 676 672 671 669 670 759 760 761 762 763 764 765 766 768 775 769 770 771 774 772 773 776 777 778 779 780 781 782 783 808 809 810 811 812 813 814 802 815 816 817 818 819 820 821 822 827 828 829 830 831 832 833 767 840 839 838 842 841 843 844 845 846 847 848 849 850 851 852 853 837 835 834 836 857 856 858 859 860 861 855 854 1702 1703 1704 1705 1706 1707 1708 1709 1710 1715 1716 1735 1734 1733 1732 1731 1730 1729 1728 1726 1723 1722 1721 1720 1719 1724 1725 1718 1717 1714 1713 1712 1695 1694 1693 1692 1691 1688 1687 866 1689 1690 1696 1697 1711 1701 1700 1699 1698 863 862 864 865 868 867 1686 1685 1684 1677 1676 1675 1674 1673 1678 1679 1680 1681 1682 1683 870 869 871 872 873 874 875 876 877 878 879 1561 1562 1563 1564 1565 1566 1567 1568 1569 1570 1571 1572 1573 1574 1575 1576 1577 1578 1623 1624 1625 1626 1627 1579 1580 1581 1582 1583 1584 1585 1586 1587 1588 1589 1590 1593 1592 1591 1622 1621 1620 1619 1618 1617 1616 1615 1614 1613 1612 1611 1610 1609 1594 1595 1596 1597 1598 1599 1600 1601 1602 1603 1604 1605 1606 1608 2073 2074 2077 2076 2075 2072 2071 2070 2069 2068 2055 2067 2066 2065 2064 2063 2062 2061 2035 2034 2036 2046 2047 2048 2049 2060 2059 2058 2057 2056 2054 2053 2052 2050 2051 1644 1645 1647 1646 1662 1663 1642 1643 1641 1640 1638 1639 1628 1629 1630 1632 1633 1631 1637 1634 1635 1672 1636 1670 1669 1671 1668 1667 1666 1665 1664 1727 1659 1660 1661 1657 1658 1656 1655 1654 1653 1652 1651 1650 1649 1648 2045 2044 2043 2042 2041 2040 2039 2038 2037 2033 2030 2029 2026 2028 2027 2025 2024 2023 2022 2021 2019 2018 2017 2016 2015 2014 2013 2012 2032 2031 2006 2005 2007 2008 2009 2011 2010 1925 1926 1918 1927 1928 1929 1930 1931 1932 1933 1934 1935 1936 1943 1945 1944 1961 1962 1960 1957 1955 1954 1953 1951 1950 1949 1948 1946 1947 1952 1959 1958 1963 1964 1965 1966 1967 1968 1984 1969 1956 1970 1983 1982 1985 1986 1987 1988 1989 1990 1991 1992 1993 1994 1995 1996 1997 1998 1999 2000 2001 2002 2003 2004 1848 1849 1850 1851 1852 1853 1854 1855 1856 1857 1858 1859 1860 1861 1862 1863 1864 1865 1866 1867 1868 1869 1870 1871 1872 1873 1874 1875 1876 1975 1976 1979 1980 1981 1978 1977 1974 1877 1878 1973 1972 1971 1880 1879 1881 1882 1883 1884 1885 1886 1888 1889 1890 1887 1891 1892 1893 1894 1895 1896 1897 1898 1899 1900 1901 1902 1903 1904 1905 1908 1907 1906 1941 1942 1937 1938 1939 1940 1910 1909 1911 1912 1913 1914 1915 1916 1917 1920 1921 1919 1924 1923 1922 2097 2096 2095 2098 2099 2100 2094 2020 2091 2090 2092 2093 2089 2104 2101 2102 2103 2105 2106 2111 2112 2110 2109 2107 2108 2087 2088 2086 2085 2084 2083 2082 2081 2080 2079 2078 2114 2113 2116 2115 2117 2118 2119 2120 2121 2122 2123 2124 2125 2126 2127 2128 2129 1607 2130 2131 2132 2133 2134 2135 2136 2137 2138 2139 2140 2141 2142 2143 2144 2145 2146 2147 2148 2150 2149 2151 2152 2153 2154 2155 2156 2157 2158 2159 2160 2161 2357 2358 2359 2360 2361 2362 2364 2363 2352 2351 2353 2354 2355 2356 2162 2163 2164 2165 2169 2168 2166 2167 2171 2170 2172 2173 2174 2175 2176 2177 2178 2180 2181 2179 2182 2183 2184 2185 2186 2188 2189 2190 2191 2192 2199 2193 2195 2196 2194 2197 2198 2200 2201 2202 2203 2204 2205 2206 2207 2208 2209 2210 2211 2212 2213 2216 2214 2215 2217 2218 2219 2220 2221 2222 2223 2232 2233 2234 2235 2236 2237 2238 2239 2240 2241 2242 2187 2243 2244 2245 2246 2247 2249 2248 2250 2251 2230 2231 2224 2225 2226 2229 2227 2228 2252 2253 2254 2255 2257 2256 2258 2259 2260 2261 2262 2263 2264 2265 2266 2267 2268 2269 2270 2271 2272 2273 2274 2293 2301 2302 2304 1329 1328 1327 1326 1325 1324 2307 2308 2306 2305 2303 2300 2299 2298 2297 2296 2295 2294 2292 2291 2275 2276 2277 2278 2279 2280 2281 2283 2290 2288 2287 2286 2289 2284 2285 2282 2350 2349 2348 2347 2346 2345 2344 2342 2343 2341 2340 2339 2338 2337 2336 2335 2334 2333 2332 2325 2324 2316 2317 2318 2321 2320 2319 2315 2314 2313 2312 2309 2310 2311 1313 1314 1312 1311 1310 2322 2323 1309 1308 1307 1306 1305 1304 1303 1302 1301 1300 1299 1298 1297 19 2328 2327 2326 2331 2330 2329 2380 2379 2378 2377 2376 2374 2373 2375 2372 2368 2367 2366 2365 
EOF